(declare-const X String)
; Filtered\s+Yeah\!\d+HXDownloadasdbiz\x2EbizUser-Agent\x3Awww\x2Eezula\x2EcomUser-Agent\x3aetbuviaebe\x2feqv\.bvv
(assert (str.in_re X (re.++ (str.to_re "Filtered") (re.+ (re.union (str.to_re " ") (str.to_re "\u{9}") (str.to_re "\u{a}") (str.to_re "\u{c}") (str.to_re "\u{d}"))) (str.to_re "Yeah!") (re.+ (re.range "0" "9")) (str.to_re "HXDownloadasdbiz.bizUser-Agent:www.ezula.comUser-Agent:etbuviaebe/eqv.bvv\u{a}"))))
; /^([A-Za-z]){1}([A-Za-z0-9-_.\:])+$/
(assert (not (str.in_re X (re.++ (str.to_re "/") ((_ re.loop 1 1) (re.union (re.range "A" "Z") (re.range "a" "z"))) (re.+ (re.union (re.range "A" "Z") (re.range "a" "z") (re.range "0" "9") (str.to_re "-") (str.to_re "_") (str.to_re ".") (str.to_re ":"))) (str.to_re "/\u{a}")))))
(check-sat)
